max

obj:

+118.27 x0
-0.69 x3
-0.04 x4
-0.02 x5
-0.03 x6
-0.12 x7
-0.06 x8
-0.03 x9
-13.49 x10
+27.82 x11
+26.6 x12
+20.97 x13
+161.41 x14
+4.06 x15
-0.01 x16
-0.09 x17
-0.02 x18
+80.02 x19
+105.09 x20
+141.92 x21
+133.07 x22
+102.44 x23
+68.99 x24
+61.59 x25
+85.2 x26
+5.01 x27
+2.06 x29
+7.63 x30
+21.96 x31
+57.8 x32
+80.07 x33
+78.4 x34
+81.43 x35
+81.51 x36
+72.33 x37
+126.54 x38
+141.42 x39
+116.27 x40
+85.0 x41
+70.42 x42
+106.3 x43
+72.98 x44
+59.37 x45
+45.73 x46
+117.2 x47
+188.53 x48
+121.98 x49
+99.93 x50
+144.0 x51
+153.09 x52
+117.45 x53
+122.53 x54
+127.12 x55
+111.05 x56
+95.8 x57
+95.1 x58
+207.79 x59
+32.0 x60
+32.0 x61
+26.0 x62
+8.0 x63
+8.0 x64
+7.0 x65
-4.0 x66
+28.0 x67
+20.0 x68
+3.35 x69
+32.88 x70
+34.0 x71
+30.02 x72
+670.05 x73
+10.0 x74
-0.01 x75
+6.0 x76
-0.02 x77
+109.43 x78
+105.09 x79
+141.92 x80
+133.07 x81
+18.0 x82
+68.99 x83
+61.59 x84
+85.2 x85
+20.5 x86
-4.0 x87
-2.0 x88
-2.0 x89
+2.0 x90
+30.0 x91
+28.0 x92
+34.5 x93
+37.0 x94
+45.0 x95
+72.33 x96
+126.54 x97
+141.42 x98
+52.5 x99
+85.0 x100
+36.88 x101
+106.3 x102
+38.0 x103
+33.0 x104
+37.0 x105
+268.17 x106
+455.64 x107
+121.98 x108
+99.93 x109
+144.0 x110
+153.09 x111
+117.45 x112
+61.12 x113
+38.0 x114
+40.23 x115
+40.24 x116
+95.1 x117


s.t.

c0:
+1.0 x0
-1.0 x118
= 1.7309999465942383
c1:
+1.0 x1
-1.0 x118
= 1.2519999742507935
c2:
+1.0 x2
-1.0 x118
= 1.25600004196167
c3:
+1.0 x3
-1.0 x118
= 1.2309999465942383
c4:
+1.0 x4
-1.0 x118
= 1.600000023841858
c5:
+1.0 x5
-1.0 x118
= 2.119999885559082
c6:
+1.0 x6
-1.0 x118
= 2.569000005722046
c7:
-1.0 x118
+1.0 x7
= 2.8429999351501465
c8:
-1.0 x118
+1.0 x8
= 3.7320001125335693
c9:
-1.0 x118
+1.0 x9
= 6.247000217437744
c10:
+1.0 x10
-1.0 x118
= 4.248000144958496
c11:
-1.0 x118
+1.0 x11
= 5.11899995803833
c12:
-1.0 x118
+1.0 x12
= 5.052000045776367
c13:
-1.0 x118
+1.0 x13
= 4.860000133514404
c14:
-1.0 x118
+1.0 x14
= 0.4300000071525574
c15:
-1.0 x118
+1.0 x15
= 4.401000022888184
c16:
-1.0 x118
+1.0 x16
= 5.045000076293945
c17:
-1.0 x118
+1.0 x17
= 5.538000106811523
c18:
-1.0 x118
+1.0 x18
= 1.715999960899353
c19:
-1.0 x118
+1.0 x19
= 0.34599998593330383
c20:
+1.0 x20
-1.0 x118
= 0.8360000252723694
c21:
-1.0 x118
+1.0 x21
= 0.699999988079071
c22:
+1.0 x22
-1.0 x118
= 0.5070000290870667
c23:
+1.0 x23
-1.0 x118
= 0.29100000858306885
c24:
-1.0 x118
+1.0 x24
= 0.7409999966621399
c25:
+1.0 x25
-1.0 x118
= 0.6209999918937683
c26:
-1.0 x118
+1.0 x26
= 1.6469999551773071
c27:
-1.0 x118
+1.0 x27
= 0.7239999771118164
c28:
+1.0 x28
-1.0 x118
= 4.5269999504089355
c29:
+1.0 x29
-1.0 x118
= 5.453000068664551
c30:
+1.0 x30
-1.0 x118
= 5.7129998207092285
c31:
+1.0 x31
-1.0 x118
= 5.775000095367432
c32:
+1.0 x32
-1.0 x118
= 2.3489999771118164
c33:
+1.0 x33
-1.0 x118
= 2.3359999656677246
c34:
-1.0 x118
+1.0 x34
= 2.257999897003174
c35:
-1.0 x118
+1.0 x35
= 2.23799991607666
c36:
-1.0 x118
+1.0 x36
= 2.1589999198913574
c37:
-1.0 x118
+1.0 x37
= 0.2770000100135803
c38:
-1.0 x118
+1.0 x38
= 0.14800000190734863
c39:
-1.0 x118
+1.0 x39
= 0.09700000286102295
c40:
-1.0 x118
+1.0 x40
= 0.03799999877810478
c41:
-1.0 x118
+1.0 x41
= -0.0
c42:
-1.0 x118
+1.0 x42
= 0.9340000152587891
c43:
+1.0 x43
-1.0 x118
= 1.5529999732971191
c44:
+1.0 x44
-1.0 x118
= 2.0190000534057617
c45:
+1.0 x45
-1.0 x118
= 2.2109999656677246
c46:
-1.0 x118
+1.0 x46
= 4.261000156402588
c47:
-1.0 x118
+1.0 x47
= 2.2660000324249268
c48:
-1.0 x118
+1.0 x48
= 2.0450000762939453
c49:
-1.0 x118
+1.0 x49
= 2.0
c50:
+1.0 x50
-1.0 x118
= 1.9490000009536743
c51:
+1.0 x51
-1.0 x118
= 1.8910000324249268
c52:
+1.0 x52
-1.0 x118
= 1.9270000457763672
c53:
+1.0 x53
-1.0 x118
= 1.1339999437332153
c54:
+1.0 x54
-1.0 x118
= 1.1089999675750732
c55:
+1.0 x55
-1.0 x118
= 1.0609999895095825
c56:
+1.0 x56
-1.0 x118
= 0.9959999918937683
c57:
+1.0 x57
-1.0 x118
= 0.9399999976158142
c58:
+1.0 x58
-1.0 x118
= 0.8429999947547913
c59:
+1.0 x118
<= -0.0


bounds

+0.0 <=  x0 <= +7.2
+0.0 <=  x1 <= +7.2
+0.0 <=  x2 <= +7.2
+0.0 <=  x3 <= +7.2
+0.0 <=  x4 <= +7.2
+0.0 <=  x5 <= +7.2
+0.0 <=  x6 <= +7.2
+0.0 <=  x7 <= +7.2
+0.0 <=  x8 <= +7.2
+0.0 <=  x9 <= +7.2
+0.0 <=  x10 <= +7.2
+0.0 <=  x11 <= +7.2
+0.0 <=  x12 <= +7.2
+0.0 <=  x13 <= +7.2
+0.0 <=  x14 <= +7.2
+0.0 <=  x15 <= +7.2
+0.0 <=  x16 <= +7.2
+0.0 <=  x17 <= +7.2
+0.0 <=  x18 <= +7.2
+0.0 <=  x19 <= +7.2
+0.0 <=  x20 <= +7.2
+0.0 <=  x21 <= +7.2
+0.0 <=  x22 <= +7.2
+0.0 <=  x23 <= +7.2
+0.0 <=  x24 <= +7.2
+0.0 <=  x25 <= +7.2
+0.0 <=  x26 <= +7.2
+0.0 <=  x27 <= +7.2
+0.0 <=  x28 <= +7.2
+0.0 <=  x29 <= +7.2
+0.0 <=  x30 <= +7.2
+0.0 <=  x31 <= +7.2
+0.0 <=  x32 <= +7.2
+0.0 <=  x33 <= +7.2
+0.0 <=  x34 <= +7.2
+0.0 <=  x35 <= +7.2
+0.0 <=  x36 <= +7.2
+0.0 <=  x37 <= +7.2
+0.0 <=  x38 <= +7.2
+0.0 <=  x39 <= +7.2
+0.0 <=  x40 <= +7.2
+0.0 <=  x41 <= +7.2
+0.0 <=  x42 <= +7.2
+0.0 <=  x43 <= +7.2
+0.0 <=  x44 <= +7.2
+0.0 <=  x45 <= +7.2
+0.0 <=  x46 <= +7.2
+0.0 <=  x47 <= +7.2
+0.0 <=  x48 <= +7.2
+0.0 <=  x49 <= +7.2
+0.0 <=  x50 <= +7.2
+0.0 <=  x51 <= +7.2
+0.0 <=  x52 <= +7.2
+0.0 <=  x53 <= +7.2
+0.0 <=  x54 <= +7.2
+0.0 <=  x55 <= +7.2
+0.0 <=  x56 <= +7.2
+0.0 <=  x57 <= +7.2
+0.0 <=  x58 <= +7.2
-7.2 <=  x59 <= +7.2
-7.2 <=  x60 <= +7.2
-7.2 <=  x61 <= +7.2
-7.2 <=  x62 <= +7.2
-7.2 <=  x63 <= +7.2
-7.2 <=  x64 <= +7.2
-7.2 <=  x65 <= +7.2
-7.2 <=  x66 <= +7.2
-7.2 <=  x67 <= +7.2
-7.2 <=  x68 <= +7.2
-7.2 <=  x69 <= +7.2
-7.2 <=  x70 <= +7.2
-7.2 <=  x71 <= +7.2
-7.2 <=  x72 <= +7.2
-7.2 <=  x73 <= +7.2
-7.2 <=  x74 <= +7.2
-7.2 <=  x75 <= +7.2
-7.2 <=  x76 <= +7.2
-7.2 <=  x77 <= +7.2
-7.2 <=  x78 <= +7.2
-7.2 <=  x79 <= +7.2
-7.2 <=  x80 <= +7.2
-7.2 <=  x81 <= +7.2
-7.2 <=  x82 <= +7.2
-7.2 <=  x83 <= +7.2
-7.2 <=  x84 <= +7.2
-7.2 <=  x85 <= +7.2
-7.2 <=  x86 <= +7.2
-7.2 <=  x87 <= +7.2
-7.2 <=  x88 <= +7.2
-7.2 <=  x89 <= +7.2
-7.2 <=  x90 <= +7.2
-7.2 <=  x91 <= +7.2
-7.2 <=  x92 <= +7.2
-7.2 <=  x93 <= +7.2
-7.2 <=  x94 <= +7.2
-7.2 <=  x95 <= +7.2
-7.2 <=  x96 <= +7.2
-7.2 <=  x97 <= +7.2
-7.2 <=  x98 <= +7.2
-7.2 <=  x99 <= +7.2
-7.2 <=  x100 <= +7.2
-7.2 <=  x101 <= +7.2
-7.2 <=  x102 <= +7.2
-7.2 <=  x103 <= +7.2
-7.2 <=  x104 <= +7.2
-7.2 <=  x105 <= +7.2
-7.2 <=  x106 <= +7.2
-7.2 <=  x107 <= +7.2
-7.2 <=  x108 <= +7.2
-7.2 <=  x109 <= +7.2
-7.2 <=  x110 <= +7.2
-7.2 <=  x111 <= +7.2
-7.2 <=  x112 <= +7.2
-7.2 <=  x113 <= +7.2
-7.2 <=  x114 <= +7.2
-7.2 <=  x115 <= +7.2
-7.2 <=  x116 <= +7.2
-7.2 <=  x117 <= +7.2
-7.2 <=  x118 <= +7.2
end
